60
1 0 28
2 0 4
2 1 35
3 0 30
3 1 20
3 2 32
4 0 5
4 1 20
4 2 2
4 3 25
5 0 5
5 1 5
5 2 27
5 3 1
5 4 8
6 0 36
6 1 15
6 2 21
6 3 16
6 4 18
6 5 2
7 0 33
7 1 38
7 2 1
7 3 25
7 4 5
7 5 22
7 6 37
8 0 13
8 1 32
8 2 18
8 3 7
8 4 36
8 5 31
8 6 12
8 7 28
9 0 5
9 1 14
9 2 33
9 3 18
9 4 24
9 5 29
9 6 21
9 7 5
9 8 18
10 0 22
10 1 30
10 2 31
10 3 36
10 4 6
10 5 5
10 6 2
10 7 23
10 8 11
10 9 22
11 0 6
11 1 32
11 2 15
11 3 8
11 4 27
11 5 32
11 6 39
11 7 3
11 8 32
11 9 7
11 10 19
12 0 7
12 1 24
12 2 32
12 3 28
12 4 17
12 5 22
12 6 31
12 7 29
12 8 34
12 9 12
12 10 21
12 11 31
13 0 15
13 1 10
13 2 4
13 3 29
13 4 26
13 5 34
13 6 30
13 7 35
13 8 26
13 9 10
13 10 39
13 11 14
13 12 29
14 0 1
14 1 21
14 2 15
14 3 30
14 4 35
14 5 18
14 6 2
14 7 4
14 8 28
14 9 33
14 10 20
14 11 37
14 12 13
14 13 40
15 0 16
15 1 40
15 2 31
15 3 10
15 4 23
15 5 23
15 6 5
15 7 11
15 8 32
15 9 36
15 10 38
15 11 6
15 12 3
15 13 22
15 14 5
16 0 8
16 1 13
16 2 39
16 3 19
16 4 18
16 5 33
16 6 9
16 7 15
16 8 9
16 9 1
16 10 9
16 11 26
16 12 5
16 13 33
16 14 17
16 15 2
17 0 21
17 1 40
17 2 30
17 3 5
17 4 15
17 5 20
17 6 33
17 7 22
17 8 36
17 9 7
17 10 5
17 11 4
17 12 11
17 13 19
17 14 24
17 15 27
17 16 28
18 0 35
18 1 29
18 2 11
18 3 11
18 4 23
18 5 12
18 6 31
18 7 25
18 8 36
18 9 39
18 10 32
18 11 6
18 12 25
18 13 38
18 14 8
18 15 15
18 16 26
18 17 32
19 0 32
19 1 34
19 2 15
19 3 25
19 4 20
19 5 15
19 6 16
19 7 39
19 8 38
19 9 27
19 10 7
19 11 1
19 12 4
19 13 38
19 14 1
19 15 21
19 16 30
19 17 16
19 18 32
20 0 22
20 1 26
20 2 2
20 3 26
20 4 4
20 5 31
20 6 29
20 7 2
20 8 17
20 9 36
20 10 9
20 11 30
20 12 23
20 13 23
20 14 30
20 15 22
20 16 11
20 17 8
20 18 38
20 19 9
21 0 10
21 1 23
21 2 31
21 3 9
21 4 38
21 5 18
21 6 23
21 7 35
21 8 23
21 9 26
21 10 34
21 11 36
21 12 20
21 13 37
21 14 15
21 15 3
21 16 20
21 17 28
21 18 1
21 19 35
21 20 22
22 0 9
22 1 12
22 2 15
22 3 3
22 4 35
22 5 10
22 6 16
22 7 34
22 8 16
22 9 29
22 10 33
22 11 36
22 12 33
22 13 28
22 14 40
22 15 6
22 16 40
22 17 6
22 18 36
22 19 30
22 20 26
22 21 5
23 0 1
23 1 13
23 2 12
23 3 26
23 4 6
23 5 6
23 6 28
23 7 19
23 8 38
23 9 30
23 10 28
23 11 11
23 12 31
23 13 38
23 14 7
23 15 16
23 16 26
23 17 5
23 18 36
23 19 19
23 20 17
23 21 36
23 22 30
24 0 13
24 1 25
24 2 3
24 3 24
24 4 8
24 5 14
24 6 16
24 7 30
24 8 6
24 9 17
24 10 31
24 11 32
24 12 2
24 13 25
24 14 40
24 15 14
24 16 23
24 17 23
24 18 2
24 19 26
24 20 9
24 21 23
24 22 10
24 23 21
25 0 8
25 1 35
25 2 15
25 3 39
25 4 22
25 5 22
25 6 8
25 7 39
25 8 4
25 9 18
25 10 31
25 11 6
25 12 2
25 13 29
25 14 11
25 15 22
25 16 6
25 17 33
25 18 8
25 19 40
25 20 33
25 21 9
25 22 37
25 23 38
25 24 37
26 0 34
26 1 35
26 2 26
26 3 20
26 4 17
26 5 16
26 6 34
26 7 15
26 8 34
26 9 18
26 10 25
26 11 32
26 12 21
26 13 21
26 14 6
26 15 37
26 16 11
26 17 29
26 18 40
26 19 31
26 20 3
26 21 18
26 22 35
26 23 22
26 24 34
26 25 14
27 0 20
27 1 8
27 2 6
27 3 22
27 4 3
27 5 40
27 6 10
27 7 8
27 8 35
27 9 25
27 10 9
27 11 5
27 12 13
27 13 11
27 14 38
27 15 20
27 16 7
27 17 21
27 18 31
27 19 16
27 20 12
27 21 7
27 22 37
27 23 29
27 24 11
27 25 4
27 26 21
28 0 10
28 1 39
28 2 38
28 3 20
28 4 13
28 5 15
28 6 11
28 7 19
28 8 9
28 9 36
28 10 9
28 11 32
28 12 10
28 13 23
28 14 10
28 15 25
28 16 12
28 17 37
28 18 37
28 19 23
28 20 40
28 21 21
28 22 13
28 23 14
28 24 39
28 25 13
28 26 19
28 27 25
29 0 35
29 1 17
29 2 11
29 3 23
29 4 5
29 5 3
29 6 38
29 7 18
29 8 19
29 9 21
29 10 34
29 11 22
29 12 36
29 13 22
29 14 29
29 15 28
29 16 18
29 17 16
29 18 38
29 19 15
29 20 36
29 21 29
29 22 31
29 23 23
29 24 27
29 25 28
29 26 1
29 27 11
29 28 40
30 0 12
30 1 26
30 2 13
30 3 19
30 4 19
30 5 1
30 6 25
30 7 20
30 8 26
30 9 3
30 10 22
30 11 10
30 12 5
30 13 19
30 14 16
30 15 3
30 16 27
30 17 10
30 18 22
30 19 15
30 20 37
30 21 10
30 22 31
30 23 35
30 24 10
30 25 27
30 26 24
30 27 11
30 28 4
30 29 23
31 0 39
31 1 27
31 2 38
31 3 27
31 4 6
31 5 34
31 6 21
31 7 16
31 8 9
31 9 34
31 10 40
31 11 30
31 12 5
31 13 10
31 14 39
31 15 10
31 16 7
31 17 24
31 18 27
31 19 8
31 20 36
31 21 26
31 22 36
31 23 21
31 24 2
31 25 4
31 26 4
31 27 31
31 28 23
31 29 23
31 30 1
32 0 37
32 1 24
32 2 21
32 3 1
32 4 23
32 5 37
32 6 15
32 7 7
32 8 28
32 9 26
32 10 17
32 11 20
32 12 4
32 13 20
32 14 39
32 15 37
32 16 31
32 17 19
32 18 30
32 19 11
32 20 18
32 21 23
32 22 33
32 23 32
32 24 31
32 25 33
32 26 9
32 27 3
32 28 17
32 29 1
32 30 13
32 31 2
33 0 3
33 1 22
33 2 18
33 3 29
33 4 10
33 5 13
33 6 11
33 7 33
33 8 18
33 9 6
33 10 11
33 11 3
33 12 37
33 13 14
33 14 31
33 15 14
33 16 1
33 17 33
33 18 38
33 19 31
33 20 7
33 21 3
33 22 11
33 23 6
33 24 28
33 25 16
33 26 26
33 27 32
33 28 5
33 29 24
33 30 1
33 31 15
33 32 30
34 0 33
34 1 18
34 2 5
34 3 19
34 4 22
34 5 23
34 6 9
34 7 9
34 8 19
34 9 2
34 10 25
34 11 24
34 12 2
34 13 34
34 14 18
34 15 13
34 16 1
34 17 32
34 18 21
34 19 37
34 20 3
34 21 8
34 22 38
34 23 19
34 24 12
34 25 13
34 26 3
34 27 13
34 28 14
34 29 39
34 30 13
34 31 20
34 32 18
34 33 27
35 0 19
35 1 30
35 2 22
35 3 2
35 4 30
35 5 23
35 6 9
35 7 3
35 8 15
35 9 37
35 10 7
35 11 2
35 12 30
35 13 7
35 14 26
35 15 38
35 16 15
35 17 17
35 18 28
35 19 16
35 20 3
35 21 30
35 22 22
35 23 31
35 24 6
35 25 18
35 26 7
35 27 1
35 28 27
35 29 21
35 30 33
35 31 11
35 32 31
35 33 8
35 34 21
36 0 1
36 1 35
36 2 37
36 3 12
36 4 1
36 5 14
36 6 6
36 7 36
36 8 30
36 9 16
36 10 6
36 11 13
36 12 39
36 13 40
36 14 19
36 15 1
36 16 9
36 17 28
36 18 20
36 19 9
36 20 39
36 21 15
36 22 29
36 23 13
36 24 27
36 25 5
36 26 24
36 27 8
36 28 9
36 29 1
36 30 24
36 31 9
36 32 15
36 33 23
36 34 21
36 35 8
37 0 3
37 1 27
37 2 29
37 3 13
37 4 38
37 5 29
37 6 38
37 7 9
37 8 14
37 9 16
37 10 37
37 11 17
37 12 22
37 13 27
37 14 38
37 15 28
37 16 6
37 17 15
37 18 6
37 19 26
37 20 31
37 21 27
37 22 37
37 23 2
37 24 17
37 25 30
37 26 3
37 27 22
37 28 18
37 29 29
37 30 11
37 31 23
37 32 24
37 33 6
37 34 15
37 35 38
37 36 37
38 0 18
38 1 3
38 2 20
38 3 11
38 4 8
38 5 20
38 6 1
38 7 24
38 8 1
38 9 18
38 10 6
38 11 35
38 12 23
38 13 13
38 14 6
38 15 24
38 16 39
38 17 7
38 18 18
38 19 17
38 20 12
38 21 7
38 22 29
38 23 33
38 24 20
38 25 31
38 26 21
38 27 9
38 28 18
38 29 34
38 30 3
38 31 14
38 32 13
38 33 39
38 34 23
38 35 25
38 36 3
38 37 31
39 0 5
39 1 35
39 2 7
39 3 19
39 4 40
39 5 31
39 6 24
39 7 16
39 8 10
39 9 25
39 10 33
39 11 8
39 12 24
39 13 16
39 14 15
39 15 30
39 16 35
39 17 16
39 18 30
39 19 2
39 20 2
39 21 27
39 22 29
39 23 37
39 24 6
39 25 3
39 26 13
39 27 30
39 28 27
39 29 36
39 30 12
39 31 1
39 32 20
39 33 3
39 34 22
39 35 15
39 36 9
39 37 24
39 38 27
40 0 40
40 1 13
40 2 21
40 3 23
40 4 5
40 5 3
40 6 3
40 7 12
40 8 30
40 9 15
40 10 7
40 11 21
40 12 24
40 13 19
40 14 24
40 15 35
40 16 11
40 17 11
40 18 1
40 19 6
40 20 9
40 21 5
40 22 1
40 23 38
40 24 9
40 25 37
40 26 1
40 27 33
40 28 20
40 29 31
40 30 40
40 31 40
40 32 5
40 33 1
40 34 3
40 35 16
40 36 7
40 37 12
40 38 25
40 39 22
41 0 11
41 1 9
41 2 9
41 3 13
41 4 7
41 5 31
41 6 27
41 7 39
41 8 18
41 9 21
41 10 10
41 11 27
41 12 27
41 13 32
41 14 15
41 15 18
41 16 32
41 17 21
41 18 21
41 19 20
41 20 33
41 21 2
41 22 22
41 23 7
41 24 39
41 25 29
41 26 40
41 27 36
41 28 19
41 29 1
41 30 21
41 31 2
41 32 17
41 33 20
41 34 22
41 35 25
41 36 34
41 37 5
41 38 13
41 39 31
41 40 24
42 0 16
42 1 27
42 2 11
42 3 39
42 4 25
42 5 22
42 6 35
42 7 27
42 8 8
42 9 11
42 10 4
42 11 5
42 12 10
42 13 22
42 14 24
42 15 1
42 16 36
42 17 36
42 18 14
42 19 9
42 20 25
42 21 22
42 22 29
42 23 6
42 24 30
42 25 3
42 26 8
42 27 30
42 28 4
42 29 30
42 30 39
42 31 25
42 32 9
42 33 3
42 34 11
42 35 8
42 36 33
42 37 15
42 38 19
42 39 5
42 40 38
42 41 32
43 0 31
43 1 30
43 2 32
43 3 1
43 4 37
43 5 29
43 6 21
43 7 7
43 8 9
43 9 11
43 10 20
43 11 23
43 12 29
43 13 10
43 14 15
43 15 16
43 16 23
43 17 6
43 18 12
43 19 29
43 20 28
43 21 35
43 22 22
43 23 37
43 24 12
43 25 34
43 26 15
43 27 34
43 28 40
43 29 27
43 30 18
43 31 15
43 32 22
43 33 19
43 34 31
43 35 21
43 36 16
43 37 23
43 38 23
43 39 38
43 40 18
43 41 14
43 42 25
44 0 24
44 1 39
44 2 9
44 3 4
44 4 35
44 5 19
44 6 7
44 7 24
44 8 24
44 9 38
44 10 6
44 11 22
44 12 17
44 13 31
44 14 19
44 15 20
44 16 35
44 17 4
44 18 1
44 19 13
44 20 34
44 21 34
44 22 23
44 23 9
44 24 6
44 25 13
44 26 38
44 27 13
44 28 37
44 29 40
44 30 27
44 31 32
44 32 21
44 33 19
44 34 7
44 35 11
44 36 17
44 37 4
44 38 34
44 39 25
44 40 6
44 41 37
44 42 26
44 43 16
45 0 13
45 1 11
45 2 32
45 3 39
45 4 16
45 5 33
45 6 37
45 7 21
45 8 26
45 9 34
45 10 22
45 11 28
45 12 14
45 13 15
45 14 1
45 15 29
45 16 12
45 17 6
45 18 5
45 19 6
45 20 7
45 21 34
45 22 30
45 23 16
45 24 17
45 25 26
45 26 39
45 27 7
45 28 21
45 29 16
45 30 31
45 31 31
45 32 31
45 33 37
45 34 20
45 35 24
45 36 3
45 37 35
45 38 4
45 39 35
45 40 26
45 41 35
45 42 7
45 43 22
45 44 38
46 0 5
46 1 27
46 2 39
46 3 29
46 4 40
46 5 37
46 6 17
46 7 5
46 8 23
46 9 1
46 10 18
46 11 27
46 12 29
46 13 40
46 14 22
46 15 6
46 16 13
46 17 3
46 18 8
46 19 14
46 20 32
46 21 6
46 22 20
46 23 16
46 24 6
46 25 9
46 26 16
46 27 1
46 28 33
46 29 14
46 30 17
46 31 36
46 32 15
46 33 16
46 34 30
46 35 7
46 36 30
46 37 28
46 38 23
46 39 27
46 40 22
46 41 16
46 42 11
46 43 10
46 44 26
46 45 37
47 0 1
47 1 21
47 2 39
47 3 8
47 4 16
47 5 35
47 6 17
47 7 4
47 8 29
47 9 16
47 10 4
47 11 27
47 12 26
47 13 9
47 14 24
47 15 38
47 16 24
47 17 12
47 18 23
47 19 8
47 20 30
47 21 34
47 22 9
47 23 13
47 24 40
47 25 28
47 26 14
47 27 21
47 28 3
47 29 19
47 30 38
47 31 12
47 32 9
47 33 12
47 34 23
47 35 30
47 36 33
47 37 16
47 38 40
47 39 19
47 40 17
47 41 30
47 42 5
47 43 24
47 44 12
47 45 36
47 46 17
48 0 33
48 1 15
48 2 13
48 3 9
48 4 19
48 5 39
48 6 2
48 7 8
48 8 33
48 9 1
48 10 21
48 11 32
48 12 7
48 13 31
48 14 29
48 15 29
48 16 40
48 17 24
48 18 4
48 19 21
48 20 8
48 21 38
48 22 1
48 23 1
48 24 38
48 25 17
48 26 21
48 27 39
48 28 27
48 29 15
48 30 27
48 31 16
48 32 27
48 33 25
48 34 39
48 35 13
48 36 1
48 37 10
48 38 5
48 39 37
48 40 11
48 41 13
48 42 39
48 43 8
48 44 11
48 45 15
48 46 18
48 47 3
49 0 9
49 1 28
49 2 16
49 3 38
49 4 33
49 5 30
49 6 33
49 7 19
49 8 30
49 9 23
49 10 6
49 11 7
49 12 5
49 13 29
49 14 10
49 15 30
49 16 36
49 17 1
49 18 6
49 19 29
49 20 33
49 21 21
49 22 18
49 23 13
49 24 32
49 25 11
49 26 4
49 27 36
49 28 23
49 29 18
49 30 39
49 31 20
49 32 15
49 33 27
49 34 18
49 35 2
49 36 23
49 37 2
49 38 34
49 39 17
49 40 21
49 41 7
49 42 14
49 43 17
49 44 25
49 45 18
49 46 6
49 47 13
49 48 25
50 0 22
50 1 21
50 2 22
50 3 1
50 4 17
50 5 7
50 6 25
50 7 12
50 8 16
50 9 8
50 10 23
50 11 32
50 12 19
50 13 21
50 14 12
50 15 38
50 16 28
50 17 10
50 18 20
50 19 39
50 20 1
50 21 36
50 22 13
50 23 11
50 24 12
50 25 40
50 26 2
50 27 5
50 28 12
50 29 27
50 30 40
50 31 18
50 32 35
50 33 14
50 34 23
50 35 31
50 36 18
50 37 8
50 38 24
50 39 21
50 40 29
50 41 30
50 42 29
50 43 16
50 44 12
50 45 39
50 46 1
50 47 18
50 48 12
50 49 15
51 0 33
51 1 4
51 2 19
51 3 19
51 4 16
51 5 7
51 6 13
51 7 2
51 8 12
51 9 32
51 10 3
51 11 33
51 12 1
51 13 20
51 14 30
51 15 18
51 16 30
51 17 10
51 18 23
51 19 6
51 20 3
51 21 37
51 22 12
51 23 6
51 24 1
51 25 21
51 26 21
51 27 38
51 28 30
51 29 13
51 30 33
51 31 35
51 32 35
51 33 16
51 34 14
51 35 31
51 36 6
51 37 26
51 38 10
51 39 17
51 40 34
51 41 39
51 42 40
51 43 8
51 44 20
51 45 10
51 46 18
51 47 5
51 48 17
51 49 17
51 50 22
52 0 9
52 1 12
52 2 20
52 3 18
52 4 34
52 5 29
52 6 36
52 7 34
52 8 20
52 9 27
52 10 33
52 11 32
52 12 9
52 13 9
52 14 25
52 15 3
52 16 17
52 17 26
52 18 3
52 19 7
52 20 39
52 21 6
52 22 1
52 23 5
52 24 38
52 25 30
52 26 20
52 27 6
52 28 3
52 29 38
52 30 2
52 31 14
52 32 2
52 33 13
52 34 33
52 35 14
52 36 2
52 37 4
52 38 30
52 39 24
52 40 10
52 41 15
52 42 37
52 43 15
52 44 11
52 45 21
52 46 31
52 47 39
52 48 23
52 49 3
52 50 33
52 51 23
53 0 13
53 1 37
53 2 11
53 3 35
53 4 21
53 5 29
53 6 6
53 7 14
53 8 8
53 9 36
53 10 25
53 11 21
53 12 26
53 13 18
53 14 32
53 15 9
53 16 30
53 17 35
53 18 29
53 19 1
53 20 4
53 21 10
53 22 11
53 23 30
53 24 2
53 25 37
53 26 39
53 27 29
53 28 26
53 29 39
53 30 7
53 31 35
53 32 31
53 33 18
53 34 34
53 35 10
53 36 32
53 37 17
53 38 10
53 39 9
53 40 24
53 41 24
53 42 4
53 43 29
53 44 16
53 45 25
53 46 28
53 47 39
53 48 23
53 49 20
53 50 28
53 51 32
53 52 11
54 0 40
54 1 2
54 2 21
54 3 29
54 4 20
54 5 15
54 6 30
54 7 14
54 8 29
54 9 5
54 10 30
54 11 12
54 12 2
54 13 27
54 14 14
54 15 32
54 16 12
54 17 34
54 18 6
54 19 20
54 20 20
54 21 1
54 22 38
54 23 32
54 24 34
54 25 2
54 26 17
54 27 31
54 28 30
54 29 34
54 30 13
54 31 6
54 32 37
54 33 34
54 34 4
54 35 19
54 36 27
54 37 1
54 38 21
54 39 21
54 40 2
54 41 14
54 42 23
54 43 14
54 44 18
54 45 15
54 46 30
54 47 30
54 48 25
54 49 35
54 50 39
54 51 4
54 52 22
54 53 11
55 0 3
55 1 20
55 2 22
55 3 17
55 4 32
55 5 40
55 6 38
55 7 17
55 8 7
55 9 7
55 10 16
55 11 26
55 12 7
55 13 19
55 14 23
55 15 36
55 16 6
55 17 3
55 18 10
55 19 5
55 20 30
55 21 30
55 22 8
55 23 4
55 24 38
55 25 33
55 26 37
55 27 3
55 28 21
55 29 18
55 30 28
55 31 1
55 32 8
55 33 6
55 34 40
55 35 20
55 36 5
55 37 11
55 38 20
55 39 29
55 40 24
55 41 32
55 42 9
55 43 30
55 44 1
55 45 30
55 46 20
55 47 26
55 48 24
55 49 34
55 50 28
55 51 9
55 52 9
55 53 30
55 54 6
56 0 19
56 1 28
56 2 7
56 3 18
56 4 36
56 5 38
56 6 19
56 7 8
56 8 29
56 9 3
56 10 12
56 11 33
56 12 35
56 13 24
56 14 39
56 15 10
56 16 39
56 17 31
56 18 15
56 19 5
56 20 20
56 21 1
56 22 40
56 23 10
56 24 26
56 25 9
56 26 25
56 27 10
56 28 32
56 29 35
56 30 30
56 31 30
56 32 20
56 33 20
56 34 33
56 35 19
56 36 18
56 37 6
56 38 31
56 39 39
56 40 34
56 41 20
56 42 14
56 43 9
56 44 39
56 45 2
56 46 23
56 47 34
56 48 7
56 49 11
56 50 1
56 51 3
56 52 16
56 53 40
56 54 28
56 55 23
57 0 31
57 1 7
57 2 35
57 3 26
57 4 12
57 5 33
57 6 14
57 7 20
57 8 21
57 9 36
57 10 22
57 11 31
57 12 14
57 13 8
57 14 22
57 15 10
57 16 37
57 17 30
57 18 16
57 19 22
57 20 1
57 21 12
57 22 28
57 23 10
57 24 7
57 25 22
57 26 24
57 27 29
57 28 37
57 29 23
57 30 32
57 31 26
57 32 16
57 33 26
57 34 33
57 35 36
57 36 17
57 37 37
57 38 7
57 39 14
57 40 1
57 41 40
57 42 29
57 43 38
57 44 25
57 45 29
57 46 22
57 47 27
57 48 16
57 49 39
57 50 8
57 51 23
57 52 34
57 53 24
57 54 38
57 55 2
57 56 17
58 0 8
58 1 24
58 2 32
58 3 18
58 4 30
58 5 32
58 6 13
58 7 11
58 8 23
58 9 10
58 10 27
58 11 37
58 12 6
58 13 30
58 14 6
58 15 26
58 16 33
58 17 14
58 18 39
58 19 28
58 20 14
58 21 38
58 22 37
58 23 23
58 24 21
58 25 4
58 26 40
58 27 37
58 28 39
58 29 35
58 30 36
58 31 35
58 32 19
58 33 38
58 34 22
58 35 4
58 36 4
58 37 22
58 38 26
58 39 19
58 40 28
58 41 17
58 42 32
58 43 25
58 44 1
58 45 22
58 46 39
58 47 40
58 48 29
58 49 35
58 50 18
58 51 7
58 52 1
58 53 10
58 54 3
58 55 17
58 56 21
58 57 31
59 0 32
59 1 6
59 2 32
59 3 29
59 4 37
59 5 1
59 6 28
59 7 3
59 8 3
59 9 30
59 10 14
59 11 6
59 12 11
59 13 6
59 14 9
59 15 2
59 16 21
59 17 10
59 18 38
59 19 31
59 20 25
59 21 24
59 22 30
59 23 6
59 24 5
59 25 34
59 26 22
59 27 8
59 28 37
59 29 26
59 30 5
59 31 15
59 32 28
59 33 31
59 34 37
59 35 25
59 36 7
59 37 29
59 38 22
59 39 29
59 40 33
59 41 33
59 42 27
59 43 40
59 44 32
59 45 27
59 46 7
59 47 4
59 48 4
59 49 14
59 50 30
59 51 10
59 52 38
59 53 33
59 54 6
59 55 10
59 56 9
59 57 24
59 58 34
